solution status: optimal solution found
objective value:                     173844.050591885
d11(0,0)                                            1 	(obj:0)
d11(1,1)                                            1 	(obj:0)
d11(1,2)                                            1 	(obj:0)
d11(2,3)                                            1 	(obj:0)
d11(2,5)                                            1 	(obj:0)
d11(2,6)                                            1 	(obj:0)
d11(3,7)                                            1 	(obj:0)
d11(3,9)                                            1 	(obj:0)
d11(3,11)                                           1 	(obj:0)
d11(3,12)                                           1 	(obj:0)
d11(3,13)                                           1 	(obj:0)
d11(3,14)                                           1 	(obj:0)
d11(4,15)                                           1 	(obj:0)
d11(4,16)                                           1 	(obj:0)
d11(4,17)                                           1 	(obj:0)
d11(4,19)                                           1 	(obj:0)
d11(4,20)                                           1 	(obj:0)
d11(4,21)                                           1 	(obj:0)
d11(4,23)                                           1 	(obj:0)
d11(4,24)                                           1 	(obj:0)
d11(4,25)                                           1 	(obj:0)
d11(4,26)                                           1 	(obj:0)
d11(4,27)                                           1 	(obj:0)
d11(4,29)                                           1 	(obj:0)
d11(4,30)                                           1 	(obj:0)
d21(3,7)                                            1 	(obj:0)
d21(4,15)                                           1 	(obj:0)
d21(4,16)                                           1 	(obj:0)
d21(4,17)                                           1 	(obj:0)
d21(4,19)                                           1 	(obj:0)
d21(4,20)                                           1 	(obj:0)
d21(4,23)                                           1 	(obj:0)
d21(4,27)                                           1 	(obj:0)
STE(1,1)                              10730.249698884 	(obj:0)
STE(0,0)                                        14175 	(obj:0)
STE(1,2)                             12388.4995977728 	(obj:0)
STE(2,3)                             7937.99979999518 	(obj:0)
STE(2,4)                               9596.249698884 	(obj:0)
STE(2,5)                               9596.249698884 	(obj:0)
STE(2,6)                             11254.4995977728 	(obj:0)
STE(3,7)                             5145.74990110633 	(obj:0)
STE(3,8)                             6803.99979999518 	(obj:0)
STE(3,9)                             6803.99979999515 	(obj:0)
STE(3,10)                              8462.249698884 	(obj:0)
STE(3,11)                            6803.99979999515 	(obj:0)
STE(3,12)                              8462.249698884 	(obj:0)
STE(3,13)                            8462.24969888397 	(obj:0)
STE(3,14)                            10120.4995977728 	(obj:0)
STE(4,15)                            2353.50000221752 	(obj:0)
STE(4,16)                            4011.74990110633 	(obj:0)
STE(4,17)                            4011.74990110636 	(obj:0)
STE(4,18)                            5669.99979999518 	(obj:0)
STE(4,19)                            4011.74990110633 	(obj:0)
STE(4,20)                            5669.99979999515 	(obj:0)
STE(4,21)                            5669.99979999518 	(obj:0)
STE(4,22)                              7328.249698884 	(obj:0)
STE(4,23)                            4011.74990110634 	(obj:0)
STE(4,24)                            5669.99979999515 	(obj:0)
STE(4,25)                            5669.99979999518 	(obj:0)
STE(4,26)                              7328.249698884 	(obj:0)
STE(4,27)                            5669.99979999515 	(obj:0)
STE(4,28)                            7328.24969888397 	(obj:0)
STE(4,29)                              7328.249698884 	(obj:0)
STE(4,30)                            8986.49959777282 	(obj:0)
y1(3,11)                             1492.42490899996 	(obj:0)
y1(3,13)                             1492.42490899996 	(obj:0)
y1(4,15)                             1492.42490899994 	(obj:0)
y1(4,17)                             1492.42490899994 	(obj:0)
y1(4,19)                             1492.42490899994 	(obj:0)
y1(4,21)                             1492.42490899994 	(obj:0)
y1(4,23)                             1492.42490899994 	(obj:0)
y1(4,25)                             1492.42490899994 	(obj:0)
y1(4,27)                             1492.42490899994 	(obj:0)
y1(4,29)                             1492.42490899994 	(obj:0)
AVE(1)                               3265.91696791192 	(obj:0)
AVE(2)                               3332.74178563731 	(obj:0)
AVE(3)                               3444.11697932125 	(obj:0)
WB(4)                                3399.56511093778 	(obj:0)
AVE(4)                               3399.56511093778 	(obj:0)
WG(1)                                3265.91696791192 	(obj:10)
WG(2)                                3332.74178563734 	(obj:10)
WG(3)                                3444.11697932125 	(obj:10)
BG(1)                                1529.61059433751 	(obj:10)
BG(2)                                 863.55071334223 	(obj:10)
BG(3)                                752.175519658342 	(obj:10)
BG(4)                                4196.29249897959 	(obj:10)
y1(1,1)                               2079.6752710044 	(obj:0)
y1(1,2)                              587.250362004466 	(obj:0)
y1(2,3)                              1492.42490899994 	(obj:0)
y1(2,5)                              1492.42490899994 	(obj:0)
y1(3,7)                              1492.42490899996 	(obj:0)
y1(3,9)                              1492.42490899996 	(obj:0)
